(set-logic QF_S)
(declare-fun _var_0xINPUT_198301_() String)
(declare-fun __woorpje_diseq_pref0_() String)
(declare-fun __woorpje_diseq_suf_l0_() String)
(declare-fun __woorpje_diseq_suf_r0_() String)
(assert (=(str.++  "LY1L0UFBGd" "")(str.++ __woorpje_diseq_pref0_  "B" __woorpje_diseq_suf_l0_  "")) )
(assert (=(str.++ _var_0xINPUT_198301_  "")(str.++ __woorpje_diseq_pref0_  "d" __woorpje_diseq_suf_r0_  "")) )
(check-sat)
